language Essence 1.3

$ consecutive mix param file
letting length be 4

$ mesh_avoidance = permutation + mesh pieces
$letting mesh_avoidance be { (sequence(1,3,2), relation( (1, 0), (1, 1), (1, 2), (1, 3), (2, 0), (2, 1), (2, 2), (2, 3), (3,2) ) }
letting mixed_consecutive_avoidance be {sequence(1,3,2)}
